88
73
23
111
9
52
70
29
106
65
95
32
35
10
25
33
116
33
88
152
30
51
45
36
39
26
89
71
113
0
29
26
13
95
0
44
0
49
164
118
114
165
27
78
36
0
171
156
81
166
20
147
0
89
11
0
30
42
78
45
15
79
23
20
149
29
26
90
37
13
181
36
44
0
86
36
64
79
74
0
42
54
30
174
75
43
136
176
34
14
115
44
35
50
68
77
85
0
29
24
